Version identifier: 20.1.0.0 | 2020-11-10 | 9bedb6d68
Tried aggregator 3 times.
MIP Presolve eliminated 1836 rows and 1043 columns.
MIP Presolve modified 3454 coefficients.
Aggregator did 180 substitutions.
Reduced MIP has 1390 rows, 1183 columns, and 4401 nonzeros.
Reduced MIP has 312 binaries, 871 generals, 0 SOSs, and 0 indicators.
Presolve time = 0.02 sec. (8.95 ticks)
Found incumbent of value 59.000000 after 0.03 sec. (14.20 ticks)
Probing fixed 40 vars, tightened 359 bounds.
Probing time = 0.00 sec. (1.53 ticks)
Tried aggregator 2 times.
MIP Presolve eliminated 579 rows and 93 columns.
MIP Presolve modified 136 coefficients.
Aggregator did 29 substitutions.
Reduced MIP has 782 rows, 1061 columns, and 2533 nonzeros.
Reduced MIP has 374 binaries, 687 generals, 0 SOSs, and 0 indicators.
Presolve time = 0.01 sec. (3.20 ticks)
Probing time = 0.00 sec. (0.19 ticks)
Tried aggregator 1 time.
Detecting symmetries...
MIP Presolve modified 230 coefficients.
Reduced MIP has 782 rows, 1061 columns, and 2533 nonzeros.
Reduced MIP has 374 binaries, 687 generals, 0 SOSs, and 0 indicators.
Presolve time = 0.00 sec. (2.10 ticks)
Probing time = 0.00 sec. (0.18 ticks)
Clique table members: 1.
MIP emphasis: balance optimality and feasibility.
MIP search method: dynamic search.
Parallel mode: deterministic, using up to 24 threads.
Root relaxation solution time = 0.01 sec. (2.97 ticks)

        Nodes                                         Cuts/
   Node  Left     Objective  IInf  Best Integer    Best Bound    ItCnt     Gap

*     0+    0                           59.0000        0.0000           100.00%
      0     0        0.6000    39       59.0000        0.6000      256   98.98%
*     0+    0                           31.0000        0.6000            98.06%
      0     0        3.3333    88       31.0000      Cuts: 88      452   89.25%
      0     0        4.3333   250       31.0000      Cuts: 74      573   86.02%
      0     0        4.5000   259       31.0000      Cuts: 71      647   85.48%
      0     0        5.1053   353       31.0000      Cuts: 94      795   83.53%
      0     0        6.0000   234       31.0000      Cuts: 99      891   80.65%
*     0+    0                           29.0000        6.0000            79.31%
      0     0        6.0000   317       29.0000      Cuts: 70      980   79.31%
      0     0        6.0000   144       29.0000      Cuts: 18     1029   79.31%
*     0+    0                           25.0000        6.0000            76.00%
*     0+    0                           22.0000        6.0000            72.73%
      0     0        cutoff             22.0000       22.0000     1326    0.00%
Elapsed time = 0.23 sec. (106.51 ticks, tree = 0.01 MB, solutions = 5)

Implied bound cuts applied:  7
Flow cuts applied:  7
Mixed integer rounding cuts applied:  28
Zero-half cuts applied:  128
Lift and project cuts applied:  3
Gomory fractional cuts applied:  13

Root node processing (before b&c):
  Real time             =    0.23 sec. (106.66 ticks)
Parallel b&c, 24 threads:
  Real time             =    0.00 sec. (0.00 ticks)
  Sync time (average)   =    0.00 sec.
  Wait time (average)   =    0.00 sec.
                          ------------
Total (root+branch&cut) =    0.23 sec. (106.66 ticks)

Solution status = Optimal
Solution LB = 22
Solution UB = 22
Runtime = 0.240039 seconds
	Command being timed: "/home/min/git_repos/CS598MEBProject/CNT-ILP/build/cnt -s 2 ./output/k6_n40/simC_c1_k6_n40_u3_s2_del02.input-right.cnp"
	User time (seconds): 2.09
	System time (seconds): 0.05
	Percent of CPU this job got: 822%
	Elapsed (wall clock) time (h:mm:ss or m:ss): 0:00.26
	Average shared text size (kbytes): 0
	Average unshared data size (kbytes): 0
	Average stack size (kbytes): 0
	Average total size (kbytes): 0
	Maximum resident set size (kbytes): 71772
	Average resident set size (kbytes): 0
	Major (requiring I/O) page faults: 0
	Minor (reclaiming a frame) page faults: 14791
	Voluntary context switches: 2423
	Involuntary context switches: 249
	Swaps: 0
	File system inputs: 0
	File system outputs: 16
	Socket messages sent: 0
	Socket messages received: 0
	Signals delivered: 0
	Page size (bytes): 4096
	Exit status: 0
